318 480
579 903
554 834
970 478
999 39
696 174
278 483
114 520
647 614
419 935
933 658
170 646
268 581
608 926
696 116
739 683
95 112
358 337
321 107
931 499
784 61
819 620
567 885
340 261
960 240
43 976
944 805
253 252
852 975
502 681
529 276
945 777
359 949
613 705
295 644
451 79
196 318
237 301
107 403
695 805
447 92
520 943
432 66
557 279
563 136
168 558
633 114
506 301
705 980
161 635
